25
    1    17    17
    2    10    10
    3     2     2
    4    14    14
    5    20    20
    6     4     4
    7     9     9
    8     4     4
    9     2     2
   10     1     1
   11    11    11
   12    17    17
   13     7     7
   14     9     9
   15     9     9
   16     7     7
   17     7     7
   18    14    14
   19    12    12
   20     6     6
   21     9     9
   22    19    19
   23    17    17
   24    15    15
   25    18    18
45
